p cnf 120 356
c t mc
-3 1 0
-3 2 0
-1 -2 3 0
-4 5 -6 0
4 -5 -6 0
-4 -5 6 0
4 5 6 0
-8 6 0
-8 -7 0
-6 7 8 0
9 8 0
9 -6 0
-8 6 -9 0
-11 -9 0
-11 -10 0
9 10 11 0
-13 -11 0
-13 12 0
11 -12 13 0
-14 3 0
-14 13 0
-3 -13 14 0
16 17 -18 0
-16 -17 -18 0
16 -17 18 0
-16 17 18 0
-18 19 -20 0
18 -19 -20 0
-18 -19 20 0
18 19 20 0
21 15 0
21 20 0
-15 -20 -21 0
22 -14 0
22 21 0
14 -21 -22 0
3 -23 -24 0
-3 23 -24 0
3 23 24 0
-3 -23 24 0
-18 25 -26 0
18 -25 -26 0
-18 -25 26 0
18 25 26 0
28 20 0
28 27 0
-20 -27 -28 0
-29 -26 0
-29 -28 0
26 28 29 0
-30 24 0
-30 -29 0
-24 29 30 0
-33 -31 0
-33 32 0
31 -32 33 0
34 -10 0
34 -5 0
10 5 -34 0
-33 34 -35 0
33 -34 -35 0
-33 -34 35 0
33 34 35 0
-36 -30 0
-36 -35 0
30 35 36 0
-39 -37 0
-39 38 0
37 -38 39 0
-41 39 0
-41 40 0
-39 -40 41 0
-42 36 0
-42 41 0
-36 -41 42 0
43 22 0
43 -42 0
-22 42 -43 0
-44 45 -46 0
44 -45 -46 0
-44 -45 46 0
44 45 46 0
-48 47 0
-48 31 0
-47 -31 48 0
-46 48 -49 0
46 -48 -49 0
-46 -48 49 0
46 48 49 0
1 2 -50 0
-1 -2 -50 0
1 -2 50 0
-1 2 50 0
46 -31 -51 0
-46 31 -51 0
46 31 51 0
-46 -31 51 0
53 -1 -54 0
-53 1 -54 0
53 1 54 0
-53 -1 54 0
-55 -52 0
-55 54 0
52 -54 55 0
55 37 -56 0
-55 -37 -56 0
55 -37 56 0
-55 37 56 0
58 57 0
58 -27 0
-57 27 -58 0
59 4 0
59 58 0
-4 -58 -59 0
60 -27 -61 0
-60 27 -61 0
60 27 61 0
-60 -27 61 0
-59 -61 -62 0
59 61 -62 0
-59 61 62 0
59 -61 62 0
56 62 -63 0
-56 -62 -63 0
56 -62 63 0
-56 62 63 0
64 -3 0
64 63 0
3 -63 -64 0
65 51 0
65 -64 0
-51 64 -65 0
-27 37 -66 0
27 -37 -66 0
-27 -37 66 0
27 37 66 0
-67 -65 0
-67 -66 0
65 66 67 0
17 58 -68 0
-17 -58 -68 0
17 -58 68 0
-17 58 68 0
-69 -27 0
-69 16 0
27 -16 69 0
69 70 -71 0
-69 -70 -71 0
69 -70 71 0
-69 70 71 0
-68 -71 -72 0
68 71 -72 0
-68 71 72 0
68 -71 72 0
-27 72 -73 0
27 -72 -73 0
-27 -72 73 0
27 72 73 0
-74 17 0
-74 7 0
-17 -7 74 0
-75 -74 0
-75 60 0
74 -60 75 0
76 -73 0
76 75 0
73 -75 -76 0
-77 -62 -78 0
77 62 -78 0
-77 62 78 0
77 -62 78 0
-31 27 -79 0
31 -27 -79 0
-31 -27 79 0
31 27 79 0
-80 19 0
-80 -79 0
-19 79 80 0
81 78 0
81 -80 0
-78 80 -81 0
82 -76 0
82 -81 0
76 81 -82 0
-83 67 0
-83 82 0
-67 -82 83 0
20 -62 -84 0
-20 62 -84 0
20 62 84 0
-20 -62 84 0
85 -83 0
85 -84 0
83 84 -85 0
50 85 -86 0
-50 -85 -86 0
50 -85 86 0
-50 85 86 0
-87 49 0
-87 -86 0
-49 86 87 0
57 88 -89 0
-57 -88 -89 0
57 -88 89 0
-57 88 89 0
87 89 -90 0
-87 -89 -90 0
87 -89 90 0
-87 89 90 0
-43 -90 -91 0
43 90 -91 0
-43 90 91 0
43 -90 91 0
-48 53 -92 0
48 -53 -92 0
-48 -53 92 0
48 53 92 0
-93 -46 -94 0
93 46 -94 0
-93 46 94 0
93 -46 94 0
-95 92 0
-95 94 0
-92 -94 95 0
-96 47 0
-96 -53 0
-47 53 96 0
-97 95 0
-97 -96 0
-95 96 97 0
98 69 0
98 -16 0
-69 16 -98 0
99 98 0
99 -77 0
-98 77 -99 0
-99 -39 -100 0
99 39 -100 0
-99 39 100 0
99 -39 100 0
-12 10 -101 0
12 -10 -101 0
-12 -10 101 0
12 10 101 0
100 101 -102 0
-100 -101 -102 0
100 -101 102 0
-100 101 102 0
-20 27 -103 0
20 -27 -103 0
-20 -27 103 0
20 27 103 0
104 5 0
104 -3 0
-5 3 -104 0
105 103 0
105 104 0
-103 -104 -105 0
106 102 0
106 -105 0
-102 105 -106 0
97 -106 -107 0
-97 106 -107 0
97 106 107 0
-97 -106 107 0
108 40 0
108 -45 0
-40 45 -108 0
-109 -93 0
-109 -15 0
93 15 109 0
-108 109 -110 0
108 -109 -110 0
-108 -109 110 0
108 109 110 0
112 88 0
112 -111 0
-88 111 -112 0
113 -110 0
113 112 0
110 -112 -113 0
114 -99 0
114 -19 0
99 19 -114 0
-113 -114 -115 0
113 114 -115 0
-113 114 115 0
113 -114 115 0
-116 -79 0
-116 -93 0
79 93 116 0
117 116 0
117 44 0
-116 -44 -117 0
-118 115 0
-118 117 0
-115 -117 118 0
119 107 0
119 -118 0
-107 118 -119 0
-120 -91 0
-120 119 0
91 -119 120 0
22 25 -45 -107 -61 -98 93 11 33 46 0
-26 37 64 -107 -43 -75 78 58 0
-23 -64 -63 -83 -33 51 93 31 17 0
-53 -44 -117 21 -37 0
-52 -21 36 -19 0
17 33 67 -57 27 -20 112 14 -11 0
72 55 6 -18 -32 103 35 0
30 40 -49 -31 119 60 0
-63 -65 -116 105 -98 0
6 -85 -89 43 0
37 -46 -77 74 56 -104 -60 -15 0
23 -97 -76 0
-33 92 108 -55 -47 -54 1 62 0
47 -30 -97 63 -9 -14 -112 0
27 -73 95 -120 40 4 -5 0
-20 -54 -85 -63 -79 -26 -65 -69 0
88 89 -64 -104 0
-51 116 -16 -94 -118 -113 0
4 -62 -9 68 50 -8 -38 -111 0
-87 -41 76 115 -106 66 -65 0
71 86 2 96 -103 0
81 22 -100 8 103 -96 13 95 -82 0
61 114 -9 95 -102 -35 97 0
7 -14 -54 69 46 58 0
16 -58 33 84 -25 7 29 0
55 35 83 4 2 46 -97 119 -108 0
30 91 -36 -17 -87 -16 0
-19 -41 -100 -43 115 -108 -69 -27 0
-73 92 -68 -4 -49 53 -60 34 -109 0
-83 26 -10 -117 0
5 66 90 -59 113 29 16 0
-110 -75 95 51 30 -11 -17 106 55 0
-97 1 105 33 -54 -78 -81 0
115 70 25 45 69 0
109 82 87 -70 -3 72 -110 0
78 -23 36 -106 24 0
9 -46 -19 0
55 -31 -87 80 -57 34 92 96 47 0
-50 -79 -115 0
117 -60 -24 100 1 -111 84 63 -85 104 0
-68 -34 76 -112 54 -114 53 75 -77 0
-78 37 -116 -26 0
109 -90 -4 45 -53 20 -118 -74 -59 0
-109 -9 117 101 76 119 -112 37 0
-99 -24 88 -101 0
-106 -4 102 0
-49 106 8 -14 97 -80 -51 0
-106 -91 83 35 -66 73 45 -94 0
109 -70 43 0
7 -53 4 -43 13 -82 0
-4 -107 47 55 -64 -81 69 -97 0
-110 -79 -29 -28 -36 0
120 0
